<number of tasks>
89

<cycle time>
16

<task times>
1 1
2 2
3 3
4 4
5 5
6 6
7 7
8 8
9 9
10 10
11 1
12 2
13 3
14 4
15 5
16 6
17 7
18 8
19 9
20 10
21 1
22 2
23 3
24 4
25 5
26 6
27 7
28 8
29 9
30 10
31 1
32 2
33 3
34 4
35 5
36 6
37 7
38 8
39 9
40 10
41 1
42 2
43 3
44 4
45 5
46 6
47 7
48 8
49 9
50 10
51 1
52 2
53 3
54 4
55 5
56 6
57 7
58 8
59 9
60 10
61 1
62 2
63 3
64 4
65 5
66 6
67 7
68 8
69 9
70 10
71 1
72 2
73 3
74 4
75 5
76 6
77 7
78 8
79 9
80 10
81 1
82 2
83 3
84 4
85 5
86 6
87 7
88 8
89 9

<precedence relations>
1,2
2,3
3,4
4,5
4,6
4,7
4,8
4,9
5,10
6,11
7,12
8,18
9,18
10,14
11,12
12,13
13,14
14,15
14,16
15,17
16,54
17,18
18,19
18,20
19,22
20,21
20,28
21,54
22,23
23,24
24,25
25,26
25,27
25,29
26,37
27,33
28,29
29,31
30,54
31,32
32,33
33,34
34,35
35,36
35,37
36,38
37,38
38,39
39,40
39,41
39,42
39,43
40,44
41,53
42,53
43,45
44,52
45,46
46,47
47,48
47,49
49,50
50,51
51,52
52,53
53,68
53,69
53,70
53,71
54,55
55,56
56,57
57,58
57,59
57,60
57,61
57,62
57,63
57,64
57,65
57,66
58,67
59,67
60,67
61,67
62,67
63,67
64,67
65,67
66,67
67,73
68,72
69,72
70,72
71,73
72,78
72,80
73,74
74,75
74,76
75,77
76,81
77,78
78,79
79,81
80,81
81,82
81,84
81,85
82,83
83,86
84,86
85,86
86,87
87,88
87,89

<setup times forward>
4,6:1
4,8:1
5,6:1
5,8:1
5,10:1
6,5:1
6,7:1
6,9:1
6,11:1
6,30:1
7,6:1
7,8:1
7,10:1
8,5:1
8,7:1
8,9:1
8,11:1
8,12:1
8,13:1
8,14:1
8,15:1
8,16:1
8,17:1
8,30:1
9,6:1
9,8:1
9,10:1
9,18:1
10,7:1
10,9:1
10,11:1
10,12:1
10,13:1
10,14:1
10,30:1
11,8:1
11,10:1
12,8:1
12,10:1
13,8:1
13,10:1
14,8:1
15,8:1
16,8:1
16,18:1
16,19:1
16,21:1
16,22:1
16,24:1
16,25:1
16,26:1
16,27:1
16,29:1
16,31:1
16,38:1
16,39:1
16,42:1
16,43:1
16,46:1
16,48:1
16,53:1
16,54:1
16,68:1
16,70:1
16,71:1
16,72:1
16,80:1
17,8:1
17,18:1
18,16:1
18,20:1
18,30:1
19,16:1
19,20:1
19,28:1
19,30:1
19,55:1
19,56:1
19,57:1
19,59:1
19,61:1
19,63:1
19,64:1
19,66:1
19,67:1
20,19:1
20,21:1
20,22:1
20,24:1
20,25:1
20,26:1
20,27:1
21,16:1
21,23:1
21,28:1
21,30:1
21,32:1
21,33:1
21,34:1
21,35:1
21,36:1
21,37:1
21,40:1
21,41:1
21,44:1
21,45:1
21,47:1
21,49:1
21,50:1
21,51:1
21,52:1
21,69:1
22,16:1
22,20:1
22,23:1
22,28:1
22,30:1
22,55:1
22,56:1
22,57:1
22,59:1
22,61:1
22,63:1
22,64:1
22,66:1
22,67:1
23,21:1
23,24:1
23,54:1
23,58:1
23,60:1
23,62:1
23,65:1
24,16:1
24,20:1
24,28:1
24,30:1
24,55:1
24,56:1
24,57:1
24,59:1
24,61:1
24,63:1
24,64:1
24,66:1
24,67:1
25,16:1
25,20:1
25,28:1
25,30:1
25,55:1
25,56:1
25,57:1
25,59:1
25,61:1
25,63:1
25,64:1
25,66:1
25,67:1
26,16:1
26,20:1
26,28:1
26,30:1
26,32:1
26,33:1
26,34:1
26,35:1
26,36:1
26,37:1
26,55:1
26,56:1
26,57:1
26,59:1
26,61:1
26,63:1
26,64:1
26,66:1
26,67:1
27,16:1
27,20:1
27,28:1
27,30:1
27,32:1
27,33:1
27,55:1
27,56:1
27,57:1
27,59:1
27,61:1
27,63:1
27,64:1
27,66:1
27,67:1
28,19:1
28,21:1
28,22:1
28,24:1
28,25:1
28,26:1
28,27:1
28,29:1
28,54:1
28,58:1
28,60:1
28,62:1
28,65:1
29,16:1
29,30:1
29,55:1
29,56:1
29,57:1
29,59:1
29,61:1
29,63:1
29,64:1
29,66:1
29,67:1
30,6:1
30,8:1
30,10:1
30,18:1
30,19:1
30,21:1
30,22:1
30,24:1
30,25:1
30,26:1
30,27:1
30,29:1
30,31:1
30,38:1
30,39:1
30,42:1
30,43:1
30,46:1
30,48:1
30,53:1
30,54:1
30,68:1
30,70:1
30,71:1
30,72:1
30,80:1
31,16:1
31,30:1
31,32:1
31,55:1
31,56:1
31,57:1
31,59:1
31,61:1
31,63:1
31,64:1
31,66:1
31,67:1
32,21:1
32,26:1
32,27:1
32,54:1
32,58:1
32,60:1
32,62:1
32,65:1
33,21:1
33,26:1
33,54:1
33,58:1
33,60:1
33,62:1
33,65:1
34,21:1
34,26:1
34,54:1
34,58:1
34,60:1
34,62:1
34,65:1
35,21:1
35,26:1
35,54:1
35,58:1
35,60:1
35,62:1
35,65:1
36,21:1
36,26:1
36,38:1
36,54:1
36,58:1
36,60:1
36,62:1
36,65:1
37,21:1
37,38:1
37,54:1
37,58:1
37,60:1
37,62:1
37,65:1
38,16:1
38,30:1
38,55:1
38,56:1
38,57:1
38,59:1
38,61:1
38,63:1
38,64:1
38,66:1
38,67:1
39,16:1
39,30:1
39,40:1
39,41:1
39,55:1
39,56:1
39,57:1
39,59:1
39,61:1
39,63:1
39,64:1
39,66:1
39,67:1
40,21:1
40,42:1
40,43:1
40,46:1
40,48:1
40,54:1
40,58:1
40,60:1
40,62:1
40,65:1
41,21:1
41,42:1
41,43:1
41,46:1
41,48:1
41,53:1
41,54:1
41,58:1
41,60:1
41,62:1
41,65:1
42,16:1
42,30:1
42,40:1
42,41:1
42,44:1
42,45:1
42,47:1
42,49:1
42,50:1
42,51:1
42,52:1
42,55:1
42,56:1
42,57:1
42,59:1
42,61:1
42,63:1
42,64:1
42,66:1
42,67:1
43,16:1
43,30:1
43,40:1
43,41:1
43,44:1
43,45:1
43,55:1
43,56:1
43,57:1
43,59:1
43,61:1
43,63:1
43,64:1
43,66:1
43,67:1
44,21:1
44,42:1
44,43:1
44,46:1
44,48:1
44,54:1
44,58:1
44,60:1
44,62:1
44,65:1
45,21:1
45,42:1
45,46:1
45,54:1
45,58:1
45,60:1
45,62:1
45,65:1
46,16:1
46,30:1
46,40:1
46,41:1
46,44:1
46,47:1
46,55:1
46,56:1
46,57:1
46,59:1
46,61:1
46,63:1
46,64:1
46,66:1
46,67:1
47,21:1
47,42:1
47,48:1
47,54:1
47,58:1
47,60:1
47,62:1
47,65:1
48,16:1
48,30:1
48,40:1
48,41:1
48,44:1
48,49:1
48,50:1
48,51:1
48,52:1
48,55:1
48,56:1
48,57:1
48,59:1
48,61:1
48,63:1
48,64:1
48,66:1
48,67:1
48,69:1
48,79:1
48,81:1
48,84:1
48,87:1
48,88:1
48,89:1
49,21:1
49,42:1
49,48:1
49,54:1
49,58:1
49,60:1
49,62:1
49,65:1
50,21:1
50,42:1
50,48:1
50,54:1
50,58:1
50,60:1
50,62:1
50,65:1
51,21:1
51,42:1
51,48:1
51,54:1
51,58:1
51,60:1
51,62:1
51,65:1
52,21:1
52,42:1
52,48:1
52,53:1
52,54:1
52,58:1
52,60:1
52,62:1
52,65:1
53,16:1
53,30:1
53,55:1
53,56:1
53,57:1
53,59:1
53,61:1
53,63:1
53,64:1
53,66:1
53,67:1
53,69:1
54,23:1
54,28:1
54,32:1
54,33:1
54,34:1
54,35:1
54,36:1
54,37:1
54,40:1
54,41:1
54,44:1
54,45:1
54,47:1
54,49:1
54,50:1
54,51:1
54,52:1
54,55:1
54,69:1
55,19:1
55,22:1
55,24:1
55,25:1
55,26:1
55,27:1
55,29:1
55,31:1
55,38:1
55,39:1
55,42:1
55,43:1
55,46:1
55,48:1
55,53:1
55,68:1
55,70:1
55,71:1
55,72:1
55,80:1
56,19:1
56,22:1
56,24:1
56,25:1
56,26:1
56,27:1
56,29:1
56,31:1
56,38:1
56,39:1
56,42:1
56,43:1
56,46:1
56,48:1
56,53:1
56,68:1
56,70:1
56,71:1
56,72:1
56,80:1
57,19:1
57,22:1
57,24:1
57,25:1
57,26:1
57,27:1
57,29:1
57,31:1
57,38:1
57,39:1
57,42:1
57,43:1
57,46:1
57,48:1
57,53:1
57,58:1
57,60:1
57,62:1
57,65:1
57,68:1
57,70:1
57,71:1
57,72:1
57,80:1
58,23:1
58,28:1
58,32:1
58,33:1
58,34:1
58,35:1
58,36:1
58,37:1
58,40:1
58,41:1
58,44:1
58,45:1
58,47:1
58,49:1
58,50:1
58,51:1
58,52:1
58,59:1
58,61:1
58,63:1
58,64:1
58,66:1
58,67:1
58,69:1
59,19:1
59,22:1
59,24:1
59,25:1
59,26:1
59,27:1
59,29:1
59,31:1
59,38:1
59,39:1
59,42:1
59,43:1
59,46:1
59,48:1
59,53:1
59,58:1
59,60:1
59,62:1
59,65:1
59,68:1
59,70:1
59,71:1
59,72:1
59,80:1
60,23:1
60,28:1
60,32:1
60,33:1
60,34:1
60,35:1
60,36:1
60,37:1
60,40:1
60,41:1
60,44:1
60,45:1
60,47:1
60,49:1
60,50:1
60,51:1
60,52:1
60,59:1
60,61:1
60,63:1
60,64:1
60,66:1
60,67:1
60,69:1
61,19:1
61,22:1
61,24:1
61,25:1
61,26:1
61,27:1
61,29:1
61,31:1
61,38:1
61,39:1
61,42:1
61,43:1
61,46:1
61,48:1
61,53:1
61,58:1
61,60:1
61,62:1
61,65:1
61,68:1
61,70:1
61,71:1
61,72:1
61,80:1
62,23:1
62,28:1
62,32:1
62,33:1
62,34:1
62,35:1
62,36:1
62,37:1
62,40:1
62,41:1
62,44:1
62,45:1
62,47:1
62,49:1
62,50:1
62,51:1
62,52:1
62,59:1
62,61:1
62,63:1
62,64:1
62,66:1
62,67:1
62,69:1
63,19:1
63,22:1
63,24:1
63,25:1
63,26:1
63,27:1
63,29:1
63,31:1
63,38:1
63,39:1
63,42:1
63,43:1
63,46:1
63,48:1
63,53:1
63,58:1
63,60:1
63,62:1
63,65:1
63,68:1
63,70:1
63,71:1
63,72:1
63,80:1
64,19:1
64,22:1
64,24:1
64,25:1
64,26:1
64,27:1
64,29:1
64,31:1
64,38:1
64,39:1
64,42:1
64,43:1
64,46:1
64,48:1
64,53:1
64,58:1
64,60:1
64,62:1
64,65:1
64,68:1
64,70:1
64,71:1
64,72:1
64,80:1
65,23:1
65,28:1
65,32:1
65,33:1
65,34:1
65,35:1
65,36:1
65,37:1
65,40:1
65,41:1
65,44:1
65,45:1
65,47:1
65,49:1
65,50:1
65,51:1
65,52:1
65,59:1
65,61:1
65,63:1
65,64:1
65,66:1
65,67:1
65,69:1
66,19:1
66,22:1
66,24:1
66,25:1
66,26:1
66,27:1
66,29:1
66,31:1
66,38:1
66,39:1
66,42:1
66,43:1
66,46:1
66,48:1
66,53:1
66,58:1
66,60:1
66,62:1
66,65:1
66,68:1
66,70:1
66,71:1
66,72:1
66,80:1
67,19:1
67,22:1
67,24:1
67,25:1
67,26:1
67,27:1
67,29:1
67,31:1
67,38:1
67,39:1
67,42:1
67,43:1
67,46:1
67,48:1
67,53:1
67,68:1
67,70:1
67,71:1
67,72:1
67,73:1
67,80:1
68,16:1
68,30:1
68,55:1
68,56:1
68,57:1
68,59:1
68,61:1
68,63:1
68,64:1
68,66:1
68,67:1
68,69:1
69,21:1
69,48:1
69,54:1
69,58:1
69,60:1
69,62:1
69,65:1
69,68:1
69,70:1
69,71:1
69,72:1
69,73:1
69,74:1
69,75:1
69,76:1
69,77:1
70,16:1
70,30:1
70,55:1
70,56:1
70,57:1
70,59:1
70,61:1
70,63:1
70,64:1
70,66:1
70,67:1
70,69:1
71,16:1
71,30:1
71,55:1
71,56:1
71,57:1
71,59:1
71,61:1
71,63:1
71,64:1
71,66:1
71,67:1
71,69:1
72,16:1
72,30:1
72,55:1
72,56:1
72,57:1
72,59:1
72,61:1
72,63:1
72,64:1
72,66:1
72,67:1
73,69:1
74,69:1
75,69:1
76,69:1
76,79:1
76,81:1
77,69:1
78,79:1
79,48:1
79,76:1
79,80:1
80,16:1
80,30:1
80,55:1
80,56:1
80,57:1
80,59:1
80,61:1
80,63:1
80,64:1
80,66:1
80,67:1
80,79:1
80,81:1
81,48:1
81,82:1
81,85:1
82,84:1
83,84:1
84,48:1
84,82:1
84,83:1
84,85:1
84,86:1
85,84:1
86,87:1
87,48:1
88,48:1
89,48:1

<setup times backward>
5,6:1
5,8:1
7,6:1
7,8:1
7,10:1
9,6:1
9,8:1
9,10:1
11,6:1
11,8:1
11,10:1
12,6:1
12,8:1
12,10:1
13,6:1
13,8:1
13,10:1
14,6:1
14,8:1
14,10:1
15,6:1
15,8:1
15,10:1
16,6:1
16,8:1
16,10:1
16,18:1
16,19:1
16,21:1
16,22:1
16,24:1
16,25:1
16,26:1
16,27:1
16,29:1
16,31:1
16,38:1
16,39:1
16,42:1
16,43:1
16,46:1
16,48:1
16,53:1
16,68:1
16,70:1
16,71:1
16,72:1
16,80:1
17,6:1
17,8:1
17,10:1
20,6:1
20,8:1
20,10:1
20,18:1
20,19:1
20,22:1
20,24:1
20,25:1
20,26:1
20,27:1
23,6:1
23,8:1
23,10:1
23,18:1
23,19:1
23,21:1
23,22:1
23,54:1
23,58:1
23,60:1
23,62:1
23,65:1
28,6:1
28,8:1
28,10:1
28,18:1
28,19:1
28,21:1
28,22:1
28,24:1
28,25:1
28,26:1
28,27:1
28,54:1
28,58:1
28,60:1
28,62:1
28,65:1
30,6:1
30,8:1
30,10:1
30,18:1
30,19:1
30,21:1
30,22:1
30,24:1
30,25:1
30,26:1
30,27:1
30,29:1
30,31:1
30,38:1
30,39:1
30,42:1
30,43:1
30,46:1
30,48:1
30,53:1
30,68:1
30,70:1
30,71:1
30,72:1
30,80:1
32,6:1
32,8:1
32,10:1
32,18:1
32,19:1
32,21:1
32,22:1
32,24:1
32,25:1
32,26:1
32,27:1
32,29:1
32,31:1
32,54:1
32,58:1
32,60:1
32,62:1
32,65:1
33,6:1
33,8:1
33,10:1
33,18:1
33,19:1
33,21:1
33,22:1
33,24:1
33,25:1
33,26:1
33,27:1
33,29:1
33,31:1
33,54:1
33,58:1
33,60:1
33,62:1
33,65:1
34,6:1
34,8:1
34,10:1
34,18:1
34,19:1
34,21:1
34,22:1
34,24:1
34,25:1
34,26:1
34,27:1
34,29:1
34,31:1
34,54:1
34,58:1
34,60:1
34,62:1
34,65:1
35,6:1
35,8:1
35,10:1
35,18:1
35,19:1
35,21:1
35,22:1
35,24:1
35,25:1
35,26:1
35,27:1
35,29:1
35,31:1
35,54:1
35,58:1
35,60:1
35,62:1
35,65:1
36,6:1
36,8:1
36,10:1
36,18:1
36,19:1
36,21:1
36,22:1
36,24:1
36,25:1
36,26:1
36,27:1
36,29:1
36,31:1
36,54:1
36,58:1
36,60:1
36,62:1
36,65:1
37,6:1
37,8:1
37,10:1
37,18:1
37,19:1
37,21:1
37,22:1
37,24:1
37,25:1
37,26:1
37,27:1
37,29:1
37,31:1
37,54:1
37,58:1
37,60:1
37,62:1
37,65:1
40,6:1
40,8:1
40,10:1
40,18:1
40,19:1
40,21:1
40,22:1
40,24:1
40,25:1
40,26:1
40,27:1
40,29:1
40,31:1
40,38:1
40,39:1
40,42:1
40,43:1
40,46:1
40,48:1
40,54:1
40,58:1
40,60:1
40,62:1
40,65:1
41,6:1
41,8:1
41,10:1
41,18:1
41,19:1
41,21:1
41,22:1
41,24:1
41,25:1
41,26:1
41,27:1
41,29:1
41,31:1
41,38:1
41,39:1
41,42:1
41,43:1
41,46:1
41,48:1
41,54:1
41,58:1
41,60:1
41,62:1
41,65:1
44,6:1
44,8:1
44,10:1
44,18:1
44,19:1
44,21:1
44,22:1
44,24:1
44,25:1
44,26:1
44,27:1
44,29:1
44,31:1
44,38:1
44,39:1
44,42:1
44,43:1
44,46:1
44,48:1
44,54:1
44,58:1
44,60:1
44,62:1
44,65:1
45,6:1
45,8:1
45,10:1
45,18:1
45,19:1
45,21:1
45,22:1
45,24:1
45,25:1
45,26:1
45,27:1
45,29:1
45,31:1
45,38:1
45,39:1
45,42:1
45,43:1
45,54:1
45,58:1
45,60:1
45,62:1
45,65:1
47,6:1
47,8:1
47,10:1
47,18:1
47,19:1
47,21:1
47,22:1
47,24:1
47,25:1
47,26:1
47,27:1
47,29:1
47,31:1
47,38:1
47,39:1
47,42:1
47,43:1
47,46:1
47,54:1
47,58:1
47,60:1
47,62:1
47,65:1
49,6:1
49,8:1
49,10:1
49,18:1
49,19:1
49,21:1
49,22:1
49,24:1
49,25:1
49,26:1
49,27:1
49,29:1
49,31:1
49,38:1
49,39:1
49,42:1
49,43:1
49,46:1
49,48:1
49,54:1
49,58:1
49,60:1
49,62:1
49,65:1
50,6:1
50,8:1
50,10:1
50,18:1
50,19:1
50,21:1
50,22:1
50,24:1
50,25:1
50,26:1
50,27:1
50,29:1
50,31:1
50,38:1
50,39:1
50,42:1
50,43:1
50,46:1
50,48:1
50,54:1
50,58:1
50,60:1
50,62:1
50,65:1
51,6:1
51,8:1
51,10:1
51,18:1
51,19:1
51,21:1
51,22:1
51,24:1
51,25:1
51,26:1
51,27:1
51,29:1
51,31:1
51,38:1
51,39:1
51,42:1
51,43:1
51,46:1
51,48:1
51,54:1
51,58:1
51,60:1
51,62:1
51,65:1
52,6:1
52,8:1
52,10:1
52,18:1
52,19:1
52,21:1
52,22:1
52,24:1
52,25:1
52,26:1
52,27:1
52,29:1
52,31:1
52,38:1
52,39:1
52,42:1
52,43:1
52,46:1
52,48:1
52,54:1
52,58:1
52,60:1
52,62:1
52,65:1
55,6:1
55,8:1
55,10:1
55,18:1
55,19:1
55,21:1
55,22:1
55,24:1
55,25:1
55,26:1
55,27:1
55,29:1
55,31:1
55,38:1
55,39:1
55,42:1
55,43:1
55,46:1
55,48:1
55,53:1
55,54:1
55,68:1
55,70:1
55,71:1
55,72:1
55,80:1
56,6:1
56,8:1
56,10:1
56,18:1
56,19:1
56,21:1
56,22:1
56,24:1
56,25:1
56,26:1
56,27:1
56,29:1
56,31:1
56,38:1
56,39:1
56,42:1
56,43:1
56,46:1
56,48:1
56,53:1
56,54:1
56,68:1
56,70:1
56,71:1
56,72:1
56,80:1
57,6:1
57,8:1
57,10:1
57,18:1
57,19:1
57,21:1
57,22:1
57,24:1
57,25:1
57,26:1
57,27:1
57,29:1
57,31:1
57,38:1
57,39:1
57,42:1
57,43:1
57,46:1
57,48:1
57,53:1
57,54:1
57,68:1
57,70:1
57,71:1
57,72:1
57,80:1
59,6:1
59,8:1
59,10:1
59,18:1
59,19:1
59,21:1
59,22:1
59,24:1
59,25:1
59,26:1
59,27:1
59,29:1
59,31:1
59,38:1
59,39:1
59,42:1
59,43:1
59,46:1
59,48:1
59,53:1
59,54:1
59,58:1
59,60:1
59,62:1
59,65:1
59,68:1
59,70:1
59,71:1
59,72:1
59,80:1
61,6:1
61,8:1
61,10:1
61,18:1
61,19:1
61,21:1
61,22:1
61,24:1
61,25:1
61,26:1
61,27:1
61,29:1
61,31:1
61,38:1
61,39:1
61,42:1
61,43:1
61,46:1
61,48:1
61,53:1
61,54:1
61,58:1
61,60:1
61,62:1
61,65:1
61,68:1
61,70:1
61,71:1
61,72:1
61,80:1
63,6:1
63,8:1
63,10:1
63,18:1
63,19:1
63,21:1
63,22:1
63,24:1
63,25:1
63,26:1
63,27:1
63,29:1
63,31:1
63,38:1
63,39:1
63,42:1
63,43:1
63,46:1
63,48:1
63,53:1
63,54:1
63,58:1
63,60:1
63,62:1
63,65:1
63,68:1
63,70:1
63,71:1
63,72:1
63,80:1
64,6:1
64,8:1
64,10:1
64,18:1
64,19:1
64,21:1
64,22:1
64,24:1
64,25:1
64,26:1
64,27:1
64,29:1
64,31:1
64,38:1
64,39:1
64,42:1
64,43:1
64,46:1
64,48:1
64,53:1
64,54:1
64,58:1
64,60:1
64,62:1
64,65:1
64,68:1
64,70:1
64,71:1
64,72:1
64,80:1
66,6:1
66,8:1
66,10:1
66,18:1
66,19:1
66,21:1
66,22:1
66,24:1
66,25:1
66,26:1
66,27:1
66,29:1
66,31:1
66,38:1
66,39:1
66,42:1
66,43:1
66,46:1
66,48:1
66,53:1
66,54:1
66,58:1
66,60:1
66,62:1
66,65:1
66,68:1
66,70:1
66,71:1
66,72:1
66,80:1
67,6:1
67,8:1
67,10:1
67,18:1
67,19:1
67,21:1
67,22:1
67,24:1
67,25:1
67,26:1
67,27:1
67,29:1
67,31:1
67,38:1
67,39:1
67,42:1
67,43:1
67,46:1
67,48:1
67,53:1
67,54:1
67,58:1
67,60:1
67,62:1
67,65:1
67,68:1
67,70:1
67,71:1
67,72:1
67,80:1
69,6:1
69,8:1
69,10:1
69,18:1
69,19:1
69,21:1
69,22:1
69,24:1
69,25:1
69,26:1
69,27:1
69,29:1
69,31:1
69,38:1
69,39:1
69,42:1
69,43:1
69,46:1
69,48:1
69,53:1
69,54:1
69,58:1
69,60:1
69,62:1
69,65:1
69,68:1
69,70:1
69,71:1
69,73:1
69,74:1
69,75:1
69,76:1
69,77:1
79,6:1
79,8:1
79,10:1
79,18:1
79,19:1
79,21:1
79,22:1
79,24:1
79,25:1
79,26:1
79,27:1
79,29:1
79,31:1
79,38:1
79,39:1
79,42:1
79,43:1
79,46:1
79,48:1
79,53:1
79,54:1
79,58:1
79,60:1
79,62:1
79,65:1
79,68:1
79,70:1
79,71:1
79,72:1
79,73:1
79,74:1
79,75:1
79,76:1
79,77:1
79,78:1
79,80:1
81,6:1
81,8:1
81,10:1
81,18:1
81,19:1
81,21:1
81,22:1
81,24:1
81,25:1
81,26:1
81,27:1
81,29:1
81,31:1
81,38:1
81,39:1
81,42:1
81,43:1
81,46:1
81,48:1
81,53:1
81,54:1
81,58:1
81,60:1
81,62:1
81,65:1
81,68:1
81,70:1
81,71:1
81,72:1
81,73:1
81,74:1
81,75:1
81,76:1
81,77:1
81,78:1
81,80:1
84,6:1
84,8:1
84,10:1
84,18:1
84,19:1
84,21:1
84,22:1
84,24:1
84,25:1
84,26:1
84,27:1
84,29:1
84,31:1
84,38:1
84,39:1
84,42:1
84,43:1
84,46:1
84,48:1
84,53:1
84,54:1
84,58:1
84,60:1
84,62:1
84,65:1
84,68:1
84,70:1
84,71:1
84,72:1
84,73:1
84,74:1
84,75:1
84,76:1
84,77:1
84,78:1
84,80:1
84,82:1
84,83:1
84,85:1
87,6:1
87,8:1
87,10:1
87,18:1
87,19:1
87,21:1
87,22:1
87,24:1
87,25:1
87,26:1
87,27:1
87,29:1
87,31:1
87,38:1
87,39:1
87,42:1
87,43:1
87,46:1
87,48:1
87,53:1
87,54:1
87,58:1
87,60:1
87,62:1
87,65:1
87,68:1
87,70:1
87,71:1
87,72:1
87,73:1
87,74:1
87,75:1
87,76:1
87,77:1
87,78:1
87,80:1
87,82:1
87,83:1
87,85:1
87,86:1
88,6:1
88,8:1
88,10:1
88,18:1
88,19:1
88,21:1
88,22:1
88,24:1
88,25:1
88,26:1
88,27:1
88,29:1
88,31:1
88,38:1
88,39:1
88,42:1
88,43:1
88,46:1
88,48:1
88,53:1
88,54:1
88,58:1
88,60:1
88,62:1
88,65:1
88,68:1
88,70:1
88,71:1
88,72:1
88,73:1
88,74:1
88,75:1
88,76:1
88,77:1
88,78:1
88,80:1
88,82:1
88,83:1
88,85:1
88,86:1
89,6:1
89,8:1
89,10:1
89,18:1
89,19:1
89,21:1
89,22:1
89,24:1
89,25:1
89,26:1
89,27:1
89,29:1
89,31:1
89,38:1
89,39:1
89,42:1
89,43:1
89,46:1
89,48:1
89,53:1
89,54:1
89,58:1
89,60:1
89,62:1
89,65:1
89,68:1
89,70:1
89,71:1
89,72:1
89,73:1
89,74:1
89,75:1
89,76:1
89,77:1
89,78:1
89,80:1
89,82:1
89,83:1
89,85:1
89,86:1

<end>

<optimal SALBP-1 value>
31


<rand seed>
467321153

<Lower Bounds>
Lm1=31
Lms1=31
Lm2=22
Lm3=22
Lm4=31
Best=31

<Optimal Stations (Iterations: 10)>
39
